100
1000
845
377
646
182
945
926
28
123
690
16
807
155
563
424
311
389
590
63
730
463
496
743
349
585
534
805
931
752
134
769
327
182
77
930
831
258
903
268
464
360
303
680
626
452
167
303
101
413
515
611
440
157
478
821
35
580
119
842
63
609
315
450
246
340
220
694
252
977
373
510
260
853
458
252
514
515
854
859
649
49
267
625
514
436
568
301
292
909
538
799
97
845
174
209
95
573
934
375
989
761
